p cnf 1 91
-4751114124452982951 4751114124452982951


-4751114124452982951 4751114124452982951
 4751114124452982951 0
-4751114124452982951 4751114124452982951 0


-4751114124452982951 4751114124452982951 0
 4751114124452982951
 4751114124452982951 0


 4751114124452982951

-4751114124452982951 4751114124452982951

-4751114124452982951 4751114124452982951 0

 4751114124452982951 0
-4751114124452982951 4751114124452982951 0
-4751114124452982951 4751114124452982951
-4751114124452982951 4751114124452982951
 4751114124452982951
 4751114124452982951 0
 4751114124452982951 0
 4751114124452982951 0
 4751114124452982951 0


-4751114124452982951 4751114124452982951
-4751114124452982951 4751114124452982951 0

-4751114124452982951 4751114124452982951 0
 4751114124452982951 0
-4751114124452982951 4751114124452982951 0
 4751114124452982951
 4751114124452982951
 4751114124452982951 0
-4751114124452982951 4751114124452982951
 4751114124452982951
 4751114124452982951 0

-4751114124452982951 4751114124452982951 0
 4751114124452982951
 4751114124452982951 0
-4751114124452982951 4751114124452982951


-4751114124452982951 4751114124452982951

-4751114124452982951 4751114124452982951
 4751114124452982951
 4751114124452982951
-4751114124452982951 4751114124452982951 0
-4751114124452982951 4751114124452982951



-4751114124452982951 4751114124452982951
-4751114124452982951 4751114124452982951 0

-4751114124452982951 4751114124452982951 0



